(set-logic QF_NRA)
(declare-fun skoZ () Real)
(declare-fun skoX () Real)
(declare-fun skoY () Real)
(assert (and (<= (* (- 1) skoY) 0) (and (<= (+ (* (- 1) skoZ) (* (- 1) skoX) (* (- 1) skoY)) (- 2)) (and (<= (+ skoZ skoX skoY) 2) (and (<= skoZ 1) (and (<= skoY 1) (and (<= skoX 1) (and (<= (* (- 1) skoZ) 0) (and (<= (* (- 1) skoY) 0) (<= (* (- 1) skoX) 0))))))))))
(set-info :status sat)
(check-sat)
